189
0 5 37 127 92 94 50 108 160 163 
54 76 114 1 101 150 97 51 165 69 
24 136 120 28 11 77 39 174 181 56 
65 84 100 132 35 70 171 46 10 155 
134 183 71 32 175 185 142 63 161 116 
47 30 133 104 148 99 111 22 184 139 
59 176 86 152 18 95 121 15 87 21 
145 128 149 67 122 110 91 48 170 146 
106 107 188 138 49 19 179 124 131 112 
177 9 154 105 14 167 40 12 36 66 
137 89 129 4 8 135 172 90 178 159 
23 41 75 72 156 80 153 34 44 151 
45 144 53 38 157 180 68 58 7 166 
57 27 147 2 126 143 182 29 103 43 
78 109 81 96 42 88 118 13 117 130 
55 52 79 169 17 186 20 187 61 83 
125 85 140 158 119 33 93 82 6 115 
74 73 141 173 3 60 168 123 64 113 
162 16 62 98 164 31 102 26 25 
